HUN,8,6,261
3,7,1,87,0,85,4,44,5,88,2,39
0,80,1,46,5,98,4,77,3,66,2,83
1,79,5,41,0,75,2,54,3,89,4,6
3,9,2,33,4,21,0,14,1,53,5,26
1,96,2,3,0,43,4,77,3,8,5,99
3,42,4,26,5,97,0,90,2,98,1,1
4,67,0,75,5,84,1,67,2,42,3,9
2,34,0,15,5,3,4,98,3,33,1,93
